s -1
v 0 0 0 0 -5 0 -7 0 0 0 0 0 0 0 15 0 0 18 0 0 0 0 0 0 0 0 0 0 0 0 31 0 0 34 0 0 0 0 39 0 0 0 0 0 -45 0 0 0 49 -50 0 0 0 0 55 0 0 -58 0 -60 0 -62 0 0 0 0 -67 0 0 -70 0 72 73 0 0 0 -77 -78 0 0 0 0 0 0 0 0 0 88 0 0 0 0 0 0 0 96 0 0 0 0 0 0 0 0 0 -106 0 0 0 0 0 112 0 0 0 0 0 118 0 0 0 122 123 -124 0 0 -127 -128 0 -130 0 -132 0 134 0 0 0 0 0 0 141 0 0 0 145 0 0 0 0 0 151 -152 0 0 -155 0 0 0 0 0 0 0 -163 0 165 0 0 0 0 0 0 0 -173 0 0 0 0 0 0 0 0 0 0 0 -185 0 0 0 0 0 191 192 0 -194 0 0 0 198 199 0 0 0 0 0 0 0 0 0 0 0 0 0 0 0 0 -216 217 218 -219 0 0 0 0 0 0 0 0 0 0 0 0 0 -233 0 -235 0 0 0 0 0 241 -242 0 0 0 0 0 0 0 0 0 0 0 0 0 0 257 258 0 0 0 0 263 0 0 0 267 0 0 0 -271 0 0 0 0 0 0 0 -279 0 281 0 283 0 -285 0 0 0 0 -290 291 0 0 0 -295 0 0 0 0 0 0 302 0 304 0 0 0 0 0 -310 -311 0 0 0 -315 0 0 0 0 -320 0 -322 0 0 0 0 -327 0 329 0 0 332 333 334 335 336 0 0 0 0 -341 0 343 0 0 0 -347 0 -349 0 0 0 -353 0 -355 0 0 0 359 -360 0 0 0 0 -365 0 0 0 0 -370 0 0 0 0 0 376 377 0 0 0 0 0 0 0 -385 0 0 0 0 0 0 -392 0 0 0 396 0 -398 0 0
t 120013